Route #1: 1 13 3 35 27 5 22 10 9 39 8 1
Route #2: 1 40 36 33 14 19 17 21 41 1
Route #3: 1 7 29 4 12 44 42 32 6 1
Route #4: 1 11 23 31 38 2 1
Route #5: 1 18 24 26 43 16 15 1
Route #6: 1 20 37 30 28 1
Route #7: 1 25 45 34 1
cost 1280
